Optimal - objective value 7.74626800
      0 r_0                         0                       1
      1 r_1                         0                       1
      2 r_2                         1                       1
      3 r_3                         0                0.985075
      4 r_4                         0                0.985075
      5 r_5                         0                0.970149
      6 r_6                         0                0.970149
      7 r_7                         0                0.970149
      8 r_8                         0                0.940299
      9 r_9                         0                0.895522
     10 r_10                        0                0.865672
     11 r_11                        0                0.835821
     12 r_12                        0                 0.80597
     13 r_13                        0                0.791045
     14 r_14                        0                0.776119
     15 r_15                        1                0.776119
     16 b_0                         1                       1
     17 b_1                         0                       1
     18 b_2                         0                       1
     19 b_3                         0                0.985075
     20 b_4                         0                0.985075
     21 b_5                         0                0.970149
     22 b_6                         0                0.970149
     23 b_7                         0                0.970149
     24 b_8                         0                0.940299
     25 b_9                         1                0.895522
     26 b_10                        1                0.865672
     27 b_11                        1                0.835821
     28 b_12                        1                 0.80597
     29 b_13                        1                0.791045
     30 b_14                        1                0.776119
     31 b_15                        0                0.776119
